(set-logic ALL)
(declare-fun var0 () String)
(assert (str.in_re var0 (re.++ (re.+ (re.+ (str.to_re "0"))) (re.++ (re.* (re.* (str.to_re "1"))) (re.++ (re.+ (re.* (str.to_re "22"))) (re.++ (re.* (re.+ (str.to_re "33"))) (re.++ (re.union (re.* (str.to_re "4")) (re.* (str.to_re "5"))) (re.++ (re.+ (re.union (str.to_re "66") (str.to_re "777"))) (re.++ (re.+ (re.* (str.to_re "8"))) (re.++ (re.union (re.union (str.to_re "9") (str.to_re "a")) (re.union (str.to_re "b") (str.to_re "ccc"))) (re.++ (re.+ (re.+ (str.to_re "ddd"))) (re.++ (re.+ (re.union (str.to_re "e") (str.to_re "f"))) (re.++ (re.+ (re.union (str.to_re "ggg") (str.to_re "hh"))) (re.++ (re.+ (re.+ (str.to_re "i"))) (re.++ (re.union (re.* (str.to_re "jj")) (re.* (str.to_re "kk"))) (re.++ (re.+ (re.+ (str.to_re "l"))) (re.++ (re.union (re.* (str.to_re "mmm")) (re.* (str.to_re "nn"))) (re.++ (re.union (re.union (str.to_re "oo") (str.to_re "pp")) (re.union (str.to_re "qqq") (str.to_re "rrr"))) (re.++ (re.union (re.union (str.to_re "s") (str.to_re "t")) (re.union (str.to_re "uuu") (str.to_re "vvv"))) (re.++ (re.* (re.* (str.to_re "www"))) (re.++ (re.+ (re.+ (str.to_re "xxx"))) (re.++ (re.+ (re.* (str.to_re "yy"))) (re.++ (re.+ (re.union (str.to_re "zzz") (str.to_re "A"))) (re.++ (re.union (re.union (str.to_re "BBB") (str.to_re "CC")) (re.union (str.to_re "D") (str.to_re "E"))) (re.++ (re.* (re.+ (str.to_re "FFF"))) (re.++ (re.* (re.* (str.to_re "G"))) (re.++ (re.union (re.+ (str.to_re "HHH")) (re.+ (str.to_re "I"))) (re.++ (re.+ (re.+ (str.to_re "JJ"))) (re.++ (re.+ (re.+ (str.to_re "K"))) (re.++ (re.+ (re.union (str.to_re "LLL") (str.to_re "MM"))) (re.++ (re.+ (re.+ (str.to_re "NNN"))) (re.++ (re.* (re.union (str.to_re "OO") (str.to_re "P"))) (re.++ (re.union (re.* (str.to_re "QQQ")) (re.* (str.to_re "RR"))) (re.++ (re.+ (re.* (str.to_re "S"))) (re.++ (re.union (re.union (str.to_re "TT") (str.to_re "UU")) (re.union (str.to_re "VVV") (str.to_re "W"))) (re.++ (re.+ (re.union (str.to_re "XX") (str.to_re "YYY"))) (re.++ (re.* (re.* (str.to_re "ZZ"))) (re.++ (re.+ (re.* (str.to_re "!!"))) (re.++ (re.+ (re.+ (str.to_re """"))) (re.++ (re.* (re.+ (str.to_re "##"))) (re.++ (re.+ (re.+ (str.to_re "$$"))) (re.++ (re.* (re.+ (str.to_re "%"))) (re.++ (re.+ (re.* (str.to_re "&"))) (re.++ (re.* (re.+ (str.to_re "'''"))) (re.++ (re.+ (re.union (str.to_re "(") (str.to_re ")"))) (re.++ (re.+ (re.+ (str.to_re "*"))) (re.++ (re.union (re.+ (str.to_re "+++")) (re.+ (str.to_re ",,,"))) (re.++ (re.union (re.+ (str.to_re "---")) (re.+ (str.to_re ".."))) (re.++ (re.* (re.* (str.to_re "///"))) (re.++ (re.union (re.* (str.to_re "::")) (re.* (str.to_re ";;;"))) (re.++ (re.+ (re.* (str.to_re "<<"))) (re.++ (re.+ (re.union (str.to_re "===") (str.to_re ">"))) (re.++ (re.+ (re.union (str.to_re "?") (str.to_re "@@"))) (re.++ (re.union (re.union (str.to_re "[[") (str.to_re "\\\\")) (re.union (str.to_re "]") (str.to_re "^^^"))) (re.++ (re.+ (re.* (str.to_re "_"))) (re.++ (re.+ (re.union (str.to_re "``") (str.to_re "{{"))) (re.++ (re.* (re.+ (str.to_re "|"))) (re.++ (re.+ (re.union (str.to_re "}}}") (str.to_re "~~"))) (re.++ (re.+ (re.* (str.to_re "000"))) (re.++ (re.+ (re.+ (str.to_re "111"))) (re.++ (re.+ (re.union (str.to_re "222") (str.to_re "3"))) (re.++ (re.+ (re.union (str.to_re "444") (str.to_re "5"))) (re.++ (re.* (re.* (str.to_re "666"))) (re.++ (re.+ (re.* (str.to_re "777"))) (re.++ (re.union (re.* (str.to_re "888")) (re.* (str.to_re "99"))) (re.++ (re.+ (re.* (str.to_re "a"))) (re.++ (re.* (re.+ (str.to_re "bbb"))) (re.++ (re.union (re.union (str.to_re "c") (str.to_re "dd")) (re.union (str.to_re "ee") (str.to_re "f"))) (re.++ (re.union (re.union (str.to_re "gg") (str.to_re "h")) (re.union (str.to_re "i") (str.to_re "jj"))) (re.++ (re.+ (re.union (str.to_re "kkk") (str.to_re "l"))) (re.++ (re.+ (re.* (str.to_re "mm"))) (re.++ (re.union (re.union (str.to_re "nnn") (str.to_re "o")) (re.union (str.to_re "ppp") (str.to_re "q"))) (re.* (re.+ (str.to_re "rrr")))))))))))))))))))))))))))))))))))))))))))))))))))))))))))))))))))))))))))
(assert (not (str.in_re var0 (re.++ (re.* (re.* (str.to_re "000"))) (re.++ (re.* (re.* (str.to_re "11"))) (re.++ (re.* (re.* (str.to_re "222"))) (re.++ (re.union (re.union (str.to_re "333") (str.to_re "4")) (re.union (str.to_re "555") (str.to_re "66"))) (re.++ (re.* (re.+ (str.to_re "777"))) (re.++ (re.* (re.* (str.to_re "8"))) (re.++ (re.* (re.union (str.to_re "99") (str.to_re "aa"))) (re.++ (re.* (re.* (str.to_re "bbb"))) (re.++ (re.* (re.* (str.to_re "ccc"))) (re.++ (re.* (re.* (str.to_re "dd"))) (re.++ (re.union (re.union (str.to_re "eee") (str.to_re "ff")) (re.union (str.to_re "gg") (str.to_re "h"))) (re.++ (re.union (re.union (str.to_re "ii") (str.to_re "jjj")) (re.union (str.to_re "kk") (str.to_re "lll"))) (re.++ (re.+ (re.+ (str.to_re "mmm"))) (re.++ (re.* (re.* (str.to_re "nnn"))) (re.++ (re.union (re.+ (str.to_re "ooo")) (re.+ (str.to_re "pp"))) (re.++ (re.union (re.* (str.to_re "qqq")) (re.* (str.to_re "rrr"))) (re.++ (re.union (re.* (str.to_re "ss")) (re.* (str.to_re "tt"))) (re.++ (re.* (re.union (str.to_re "uuu") (str.to_re "vv"))) (re.++ (re.union (re.union (str.to_re "www") (str.to_re "xxx")) (re.union (str.to_re "yy") (str.to_re "zzz"))) (re.++ (re.+ (re.* (str.to_re "AAA"))) (re.++ (re.* (re.+ (str.to_re "BB"))) (re.++ (re.+ (re.* (str.to_re "C"))) (re.++ (re.* (re.+ (str.to_re "DD"))) (re.++ (re.union (re.+ (str.to_re "EE")) (re.+ (str.to_re "F"))) (re.++ (re.union (re.union (str.to_re "GGG") (str.to_re "H")) (re.union (str.to_re "I") (str.to_re "JJ"))) (re.++ (re.union (re.+ (str.to_re "KK")) (re.+ (str.to_re "L"))) (re.++ (re.+ (re.* (str.to_re "MM"))) (re.++ (re.* (re.+ (str.to_re "NN"))) (re.++ (re.* (re.union (str.to_re "OO") (str.to_re "PPP"))) (re.++ (re.* (re.union (str.to_re "QQQ") (str.to_re "RRR"))) (re.++ (re.union (re.* (str.to_re "SSS")) (re.* (str.to_re "TTT"))) (re.++ (re.+ (re.+ (str.to_re "U"))) (re.++ (re.union (re.union (str.to_re "VVV") (str.to_re "W")) (re.union (str.to_re "XX") (str.to_re "Y"))) (re.++ (re.* (re.union (str.to_re "ZZZ") (str.to_re "!!!"))) (re.++ (re.union (re.+ (str.to_re """""""")) (re.+ (str.to_re "#"))) (re.++ (re.* (re.+ (str.to_re "$$"))) (re.++ (re.union (re.* (str.to_re "%%%")) (re.* (str.to_re "&&"))) (re.++ (re.union (re.* (str.to_re "''")) (re.* (str.to_re "("))) (re.++ (re.+ (re.+ (str.to_re "))"))) (re.++ (re.* (re.+ (str.to_re "**"))) (re.++ (re.union (re.+ (str.to_re "++")) (re.+ (str.to_re ",,"))) (re.++ (re.* (re.* (str.to_re "---"))) (re.++ (re.union (re.* (str.to_re ".")) (re.* (str.to_re "///"))) (re.++ (re.* (re.* (str.to_re ":::"))) (re.++ (re.union (re.union (str.to_re ";") (str.to_re "<")) (re.union (str.to_re "===") (str.to_re ">>"))) (re.++ (re.* (re.union (str.to_re "??") (str.to_re "@@@"))) (re.++ (re.* (re.* (str.to_re "[["))) (re.++ (re.* (re.+ (str.to_re "\\\\"))) (re.++ (re.* (re.* (str.to_re "]]"))) (re.++ (re.* (re.+ (str.to_re "^^"))) (re.++ (re.+ (re.+ (str.to_re "__"))) (re.++ (re.+ (re.union (str.to_re "``") (str.to_re "{"))) (re.++ (re.union (re.+ (str.to_re "||")) (re.+ (str.to_re "}"))) (re.++ (re.+ (re.union (str.to_re "~~") (str.to_re "000"))) (re.++ (re.* (re.union (str.to_re "1") (str.to_re "2"))) (re.++ (re.+ (re.+ (str.to_re "3"))) (re.++ (re.* (re.union (str.to_re "4") (str.to_re "5"))) (re.++ (re.union (re.* (str.to_re "66")) (re.* (str.to_re "7"))) (re.++ (re.+ (re.+ (str.to_re "8"))) (re.++ (re.union (re.* (str.to_re "99")) (re.* (str.to_re "a"))) (re.++ (re.* (re.* (str.to_re "bb"))) (re.++ (re.union (re.* (str.to_re "ccc")) (re.* (str.to_re "d"))) (re.++ (re.union (re.union (str.to_re "ee") (str.to_re "fff")) (re.union (str.to_re "gg") (str.to_re "hh"))) (re.++ (re.union (re.* (str.to_re "ii")) (re.* (str.to_re "j"))) (re.++ (re.* (re.union (str.to_re "kk") (str.to_re "lll"))) (re.++ (re.+ (re.* (str.to_re "mmm"))) (re.++ (re.+ (re.* (str.to_re "nn"))) (re.++ (re.* (re.+ (str.to_re "oo"))) (re.++ (re.* (re.+ (str.to_re "ppp"))) (re.++ (re.* (re.+ (str.to_re "q"))) (re.* (re.* (str.to_re "rr"))))))))))))))))))))))))))))))))))))))))))))))))))))))))))))))))))))))))))))
(check-sat)